100
1000
618
611
604
602
594
588
583
583
582
582
573
554
538
536
534
521
505
500
499
494
493
492
477
475
470
448
445
442
432
430
429
429
420
412
408
408
404
401
393
389
388
374
369
363
362
359
354
340
327
326
325
318
317
308
304
291
286
275
268
267
264
263
249
212
207
200
200
200
197
192
182
182
178
177
177
172
168
164
159
153
150
138
134
132
127
116
109
92
87
83
77
75
67
60
59
51
47
45
37
36
